100 58635

 394 450
474 578
855 571
341 333
870 316
89 107
777 367
848 100
182 767
431 967
166 971
707 866
536 601
636 701
197 286
212 631
42 456
323 483
560 758
858 282
667 319
436 925
954 57
720 486
931 913
528 611
259 547
53 250
727 344
122 853
303 560
533 515
565 100
601 17
167 964
380 377
618 604
970 80
728 684
923 933
763 576
592 127
193 582
667 767
624 407
603 880
490 649
529 900
335 624
520 132
198 310
806 202
186 909
85 761
437 677
659 301
438 185
277 757
559 475
348 226
933 617
923 41
503 327
328 469
738 148
37 985
475 210
337 131
921 204
13 770
553 426
741 566
486 22
86 35
973 446
519 817
615 886
237 87
484 539
430 914
75 388
107 830
838 134
240 936
195 752
505 942
769 677
62 364
577 939
120 276
37 333
53 701
835 766
118 930
46 205
438 798
844 739
263 64
422 388
40 283
